	Costo	Iter.	Tiempo
1	540,23	194	6,578
2	856,06	266	16,766
3	852,37	203	30,75
4	1096,84	249	97,828
5	1391,47	137	105,266
6	560,88	117	3,764
7	925,59	373	112,329
8	875,06	136	40,282
9	1228,16	135	708,629
10	1503,56	141	2622,509
11	1234,79	152	40,189
12	822,66	127	17,736
13	1607,48	234	74,126
14	900,79	126	19,75
